sat
(
  (define-fun C2_VM4 () Int
    1)
  (define-fun MemProv1 () Int
    7500)
  (define-fun VM4Type () Int
    26)
  (define-fun C3_VM6 () Int
    0)
  (define-fun ProcProv4 () Int
    4)
  (define-fun C1_VM3 () Int
    1)
  (define-fun C2_VM2 () Int
    0)
  (define-fun MemProv4 () Int
    7500)
  (define-fun C3_VM2 () Int
    0)
  (define-fun VM3Type () Int
    26)
  (define-fun C5_VM1 () Int
    1)
  (define-fun StorageProv1 () Int
    2000)
  (define-fun C5_VM4 () Int
    1)
  (define-fun C3_VM5 () Int
    1)
  (define-fun StorageProv4 () Int
    2000)
  (define-fun StorageProv5 () Int
    4000)
  (define-fun C1_VM2 () Int
    0)
  (define-fun StorageProv3 () Int
    2000)
  (define-fun ProcProv5 () Int
    8)
  (define-fun C3_VM4 () Int
    0)
  (define-fun C5_VM3 () Int
    0)
  (define-fun C4_VM6 () Int
    1)
  (define-fun VM1Type () Int
    26)
  (define-fun C2_VM3 () Int
    0)
  (define-fun C1_VM6 () Int
    0)
  (define-fun PriceProv2 () Int
    0)
  (define-fun C5_VM2 () Int
    0)
  (define-fun PriceProv6 () Int
    1288)
  (define-fun C5_VM6 () Int
    0)
  (define-fun C4_VM3 () Int
    0)
  (define-fun PriceProv3 () Int
    252)
  (define-fun C3_VM1 () Int
    0)
  (define-fun C2_VM1 () Int
    1)
  (define-fun ProcProv3 () Int
    4)
  (define-fun VM5Type () Int
    21)
  (define-fun C1_VM5 () Int
    0)
  (define-fun C3_VM3 () Int
    0)
  (define-fun C2_VM6 () Int
    0)
  (define-fun C2_VM5 () Int
    0)
  (define-fun VM2Type () Int
    0)
  (define-fun C4_VM2 () Int
    0)
  (define-fun C1_VM4 () Int
    0)
  (define-fun MemProv2 () Int
    68401)
  (define-fun MemProv3 () Int
    7500)
  (define-fun ProcProv6 () Int
    8)
  (define-fun PriceProv5 () Int
    632)
  (define-fun PriceProv4 () Int
    252)
  (define-fun MemProv6 () Int
    68400)
  (define-fun C5_VM5 () Int
    1)
  (define-fun C4_VM5 () Int
    0)
  (define-fun ProcProv2 () Int
    31)
  (define-fun StorageProv2 () Int
    2001)
  (define-fun VM6Type () Int
    22)
  (define-fun StorageProv6 () Int
    2000)
  (define-fun ProcProv1 () Int
    4)
  (define-fun PriceProv1 () Int
    252)
  (define-fun C4_VM1 () Int
    0)
  (define-fun C4_VM4 () Int
    0)
  (define-fun MemProv5 () Int
    7000)
  (define-fun C1_VM1 () Int
    0)
)
(objectives
 ( 16)
 ((+ 0 PriceProv1 PriceProv2 PriceProv3 PriceProv4 PriceProv5 PriceProv6) 2676)
)
(:added-eqs                   110355
 :arith-eq-adapter            19242
 :arith-bound-propagations-lp 603
 :arith-conflicts             19
 :arith-diseq                 77997
 :arith-fixed-eqs             4048
 :arith-lower                 73742
 :arith-make-feasible         17235
 :arith-max-columns           147
 :arith-max-rows              20
 :arith-upper                 110889
 :binary-propagations         494360
 :conflicts                   2124
 :decisions                   51904
 :del-clause                  9216
 :final-checks                49
 :max-memory                  44.20
 :maxsat-cores                3
 :memory                      44.20
 :minimized-lits              21422
 :mk-bool-var                 39763
 :mk-clause                   10778
 :mk-clause-binary            4391
 :num-allocs                  64169606
 :num-checks                  49
 :pb-conflicts                1543
 :pb-predicates               474
 :pb-propagations             1792
 :pb-resolves                 1541
 :propagations                678073
 :restarts                    14
 :rlimit-count                4707746
 :solve-eqs-elim-vars         1
 :solve-eqs-steps             10
 :time                        0.27
 :total-time                  0.28)
